row=9;
column=9;
Board=[|0,1,1,1,0,1,0,0,0|0,1,0,1,1,0,1,0,0|0,0,0,1,0,0,0,0,0|0,0,0,0,0,0,0,0,0|1,0,0,0,0,0,0,0,0|0,0,0,0,0,0,0,0,0|0,0,0,0,0,0,0,1,0|0,1,0,0,0,1,0,0,0|0,0,0,0,0,0,0,0,0|];
right = [1,1,1,3,0,2,1,1,3];
bottom = [3,0,4,0,2,0,1,2,1];
